c random clauses
p cnf 14 32
-14 -13 -10 4 7 8 11 12 0
-14 -13 -6 -1 2 5 9 11 0
-14 -13 -4 -2 1 3 8 11 0
-14 -13 -1 4 7 8 10 12 0
-14 -12 -10 -9 -8 -4 -3 5 0
-14 -12 -7 -6 -4 -1 8 13 0
-14 -12 -5 -2 1 6 7 9 0
-14 -10 -9 -7 -4 1 5 6 0
-14 1 3 5 7 8 9 10 0
-13 -12 -4 1 3 6 8 14 0
-13 -11 -10 -6 -5 -3 1 12 0
-13 -11 -9 -7 -6 3 4 12 0
-13 -11 -9 -5 -1 2 7 10 0
-13 -11 -7 -1 2 5 10 12 0
-13 -10 -6 -3 -2 9 11 14 0
-13 -8 -4 -1 5 10 12 14 0
-13 -6 -4 -1 7 8 9 14 0
-13 -5 -3 1 2 7 8 14 0
-13 -3 2 4 8 9 10 11 0
-12 -10 -6 -4 1 8 11 14 0
-12 -10 -6 -4 7 8 9 14 0
-12 -9 -8 -5 2 7 11 13 0
-12 -9 -1 3 4 5 6 11 0
-12 -7 -4 3 5 6 13 14 0
-12 -5 -1 2 4 6 7 8 0
-12 -4 -2 1 7 8 11 14 0
-11 -10 -9 -8 -6 4 12 14 0
-11 -10 -8 -6 1 12 13 14 0
-11 -8 -6 -4 -2 1 7 13 0
-11 -8 -6 -1 4 5 9 13 0
-9 -6 -4 2 8 11 12 14 0
-8 -6 -4 -3 -1 2 11 13 0
